networks/zoo_80_1248/zoo_80_1248-lower.txt
Number of groups: 40
Flow 1: {1 2 0} {2 42 0} 
Flow 2: {1 5 0} {5 4 0} {4 44 0} 
Flow 3: {5 45 0} 
Flow 4: {5 6 0} {6 46 0} 
Flow 5: {5 7 0} {7 47 0} 
Flow 6: {1 35 0} {35 8 0} {8 48 0} 
Flow 7: {5 9 0} {9 49 0} 
Flow 8: {9 10 0} {10 50 0} 
Flow 9: {4 11 0} {11 51 0} 
Flow 10: {5 30 0} {30 16 0} {16 13 0} {13 53 0} 
Flow 11: {6 24 0} {24 23 0} {23 14 0} {14 54 0} 
Flow 12: {13 15 0} {15 55 0} 
Flow 13: {16 56 0} 
Flow 14: {5 17 0} {17 57 0} 
Flow 15: {5 18 0} {18 58 0} 
Flow 16: {10 19 0} {19 59 0} 
Flow 17: {4 20 0} {20 60 0} 
Flow 18: {13 21 0} {21 61 0} 
Flow 19: {23 63 0} 
Flow 20: {24 64 0} 
Flow 21: {35 25 0} {25 65 0} 
Flow 22: {9 26 0} {26 66 0} 
Flow 23: {23 27 0} {27 67 0} 
Flow 24: {30 29 0} {29 28 0} {28 68 0} 
Flow 25: {29 69 0} 
Flow 26: {30 70 0} 
Flow 27: {1 31 0} {31 71 0} 
Flow 28: {1 3 0} {3 32 0} {32 72 0} 
Flow 29: {3 33 0} {33 73 0} 
Flow 30: {2 34 0} {34 74 0} 
Flow 31: {35 75 0} 
Flow 32: {3 36 0} {36 76 0} 
Flow 33: {3 37 0} {37 77 0} 
Flow 34: {37 38 0} {38 78 0} 
Flow 35: {3 39 0} {39 79 0} 
Flow 36: {31 40 0} {40 80 0} 
Flow 37: {2 1 0} {1 41 0} 
Flow 46: {14 12 0} {12 52 0} 
Flow 74: {3 1 0} Flow 76: {3 5 0} Flow 94: {28 22 0} {22 62 0} 
Flow 112: {39 40 0} Flow 113: {4 5 0} {5 1 0} Flow 115: {5 3 0} {3 43 0} 
Flow 117: {4 6 0} Flow 119: {7 8 0} Flow 141: {4 31 0} Flow 142: {5 32 0} Flow 188: {6 5 0} Flow 190: {6 4 0} Flow 198: {23 13 0} Flow 212: {23 28 0} Flow 225: {7 5 0} Flow 232: {8 26 0} Flow 234: {8 35 0} Flow 236: {35 1 0} Flow 238: {8 7 0} Flow 243: {8 9 0} Flow 246: {10 16 0} {13 14 0} Flow 251: {35 17 0} Flow 259: {26 25 0} Flow 267: {35 33 0} Flow 268: {35 34 0} Flow 275: {9 5 0} Flow 280: {9 8 0} Flow 306: {10 9 0} Flow 326: {10 30 0} Flow 327: {30 24 0} Flow 329: {10 26 0} Flow 345: {11 4 0} Flow 370: {12 14 0} {14 13 0} {13 16 0} {16 30 0} {30 5 0} Flow 371: {16 10 0} Flow 375: {14 23 0} Flow 382: {13 23 0} {23 24 0} {24 6 0} Flow 406: {28 29 0} Flow 431: {14 15 0} Flow 456: {15 13 0} Flow 467: {15 14 0} Flow 533: {17 5 0} Flow 538: {17 35 0} Flow 560: {18 5 0} Flow 584: {18 31 0} Flow 585: {19 10 0} Flow 610: {20 4 0} Flow 634: {22 28 0} {29 30 0} Flow 636: {28 23 0} Flow 640: {30 10 0} Flow 673: {24 30 0} Flow 722: {25 35 0} Flow 724: {25 26 0} {26 9 0} Flow 726: {26 8 0} Flow 729: {26 10 0} Flow 787: {27 23 0} Flow 922: {31 1 0} Flow 925: {31 4 0} Flow 939: {31 18 0} Flow 959: {40 39 0} Flow 961: {32 3 0} Flow 964: {32 5 0} Flow 999: {33 3 0} Flow 1004: {33 35 0} Flow 1028: {34 2 0} Flow 1033: {34 35 0} Flow 1100: {36 3 0} Flow 1133: {36 37 0} Flow 1137: {37 3 0} Flow 1170: {37 36 0} Flow 1174: {38 37 0} Flow 1195: {39 3 0} Flow 1221: {40 31 0} Time taken running everything: 0 seconds
