networks/zoo_80_1248/zoo_80_1248-lower.sol
<?xml version = "1.0" encoding="UTF-8" standalone="yes"?>
<CPLEXSolution version="1.2">
 <header
   problemName="networks/zoo_80_1248/zoo_80_1248-lower.lp"
   solutionName="incumbent"
   solutionIndex="-1"
   objectiveValue="52"
   solutionTypeValue="3"
   solutionTypeString="primal"
   solutionStatusValue="101"
   solutionStatusString="integer optimal solution"
   solutionMethodString="mip"
   primalFeasible="1"
   dualFeasible="1"
   MIPNodes="0"
   MIPIterations="3251"
   writeLevel="3"/>
 <quality
   epInt="1.0000000000000001e-05"
   epRHS="9.9999999999999995e-07"
   maxIntInfeas="0"
   maxPrimalInfeas="0"
   maxX="1"
   maxSlack="1"/>
 <variables>
  <variable name="Y(94,22)" index="7461" value="1"/>
  <variable name="Y(141,31)" index="11230" value="1"/>
  <variable name="Y(193,8)" index="15367" value="1"/>
  <variable name="Y(235,1)" index="18720" value="1"/>
  <variable name="Y(243,9)" index="19368" value="1"/>
  <variable name="Y(281,10)" index="22409" value="1"/>
  <variable name="Y(325,21)" index="25940" value="1"/>
  <variable name="Y(360,29)" index="28748" value="1"/>
  <variable name="Y(373,13)" index="29772" value="1"/>
  <variable name="Y(375,23)" index="29942" value="1"/>
  <variable name="Y(391,14)" index="31213" value="1"/>
  <variable name="Y(405,28)" index="32347" value="1"/>
  <variable name="Y(431,15)" index="34414" value="1"/>
  <variable name="Y(458,3)" index="36562" value="1"/>
  <variable name="Y(467,12)" index="37291" value="1"/>
  <variable name="Y(536,5)" index="42804" value="1"/>
  <variable name="Y(553,33)" index="44192" value="1"/>
  <variable name="Y(577,5)" index="46084" value="1"/>
  <variable name="Y(584,31)" index="46670" value="1"/>
  <variable name="Y(604,35)" index="48274" value="1"/>
  <variable name="Y(621,24)" index="49623" value="1"/>
  <variable name="Y(645,30)" index="51549" value="1"/>
  <variable name="Y(668,26)" index="53385" value="1"/>
  <variable name="Y(702,19)" index="56098" value="1"/>
  <variable name="Y(719,38)" index="57477" value="1"/>
  <variable name="Y(722,1)" index="57680" value="1"/>
  <variable name="Y(724,4)" index="57843" value="1"/>
  <variable name="Y(754,7)" index="60246" value="1"/>
  <variable name="Y(773,27)" index="61786" value="1"/>
  <variable name="Y(797,13)" index="63692" value="1"/>
  <variable name="Y(836,20)" index="66819" value="1"/>
  <variable name="Y(865,23)" index="69142" value="1"/>
  <variable name="Y(932,11)" index="74490" value="1"/>
  <variable name="Y(946,25)" index="75624" value="1"/>
  <variable name="Y(947,9)" index="75688" value="1"/>
  <variable name="Y(977,5)" index="78084" value="1"/>
  <variable name="Y(992,2)" index="79281" value="1"/>
  <variable name="Y(1009,16)" index="80655" value="1"/>
  <variable name="Y(1011,5)" index="80804" value="1"/>
  <variable name="Y(1021,34)" index="81633" value="1"/>
  <variable name="Y(1029,2)" index="82241" value="1"/>
  <variable name="Y(1032,6)" index="82485" value="1"/>
  <variable name="Y(1048,26)" index="83785" value="1"/>
  <variable name="Y(1053,32)" index="84191" value="1"/>
  <variable name="Y(1077,17)" index="86096" value="1"/>
  <variable name="Y(1130,3)" index="90322" value="1"/>
  <variable name="Y(1133,37)" index="90596" value="1"/>
  <variable name="Y(1191,36)" index="95235" value="1"/>
  <variable name="Y(1193,39)" index="95398" value="1"/>
  <variable name="Y(1220,40)" index="97559" value="1"/>
  <variable name="Y(1232,18)" index="98497" value="1"/>
  <variable name="Y(1245,3)" index="99522" value="1"/>
  <variable name="X(1,2,992)" index="100831" value="1"/>
  <variable name="X(1,3,1053)" index="102140" value="1"/>
  <variable name="X(1,5,947)" index="103282" value="1"/>
  <variable name="X(1,31,235)" index="103818" value="1"/>
  <variable name="X(1,35,946)" index="105777" value="1"/>
  <variable name="X(1,41,722)" index="106801" value="1"/>
  <variable name="X(2,1,1053)" index="108380" value="1"/>
  <variable name="X(2,34,992)" index="109567" value="1"/>
  <variable name="X(2,42,1029)" index="110852" value="1"/>
  <variable name="X(3,1,992)" index="112063" value="1"/>
  <variable name="X(3,5,1011)" index="113330" value="1"/>
  <variable name="X(3,32,1053)" index="114620" value="1"/>
  <variable name="X(3,33,1130)" index="115945" value="1"/>
  <variable name="X(3,36,1245)" index="117308" value="1"/>
  <variable name="X(3,37,719)" index="118030" value="1"/>
  <variable name="X(3,39,1193)" index="119752" value="1"/>
  <variable name="X(3,43,458)" index="120265" value="1"/>
  <variable name="X(4,5,360)" index="121415" value="1"/>
  <variable name="X(4,6,621)" index="122924" value="1"/>
  <variable name="X(4,11,932)" index="124483" value="1"/>
  <variable name="X(4,20,836)" index="125635" value="1"/>
  <variable name="X(4,31,141)" index="126188" value="1"/>
  <variable name="X(4,44,724)" index="128019" value="1"/>
  <variable name="X(5,1,235)" index="128778" value="1"/>
  <variable name="X(5,3,458)" index="130249" value="1"/>
  <variable name="X(5,4,724)" index="131763" value="1"/>
  <variable name="X(5,6,1032)" index="133319" value="1"/>
  <variable name="X(5,7,193)" index="133728" value="1"/>
  <variable name="X(5,9,947)" index="135730" value="1"/>
  <variable name="X(5,17,977)" index="137008" value="1"/>
  <variable name="X(5,18,1011)" index="138290" value="1"/>
  <variable name="X(5,30,360)" index="138887" value="1"/>
  <variable name="X(5,32,577)" index="140352" value="1"/>
  <variable name="X(5,45,536)" index="141559" value="1"/>
  <variable name="X(6,4,836)" index="143107" value="1"/>
  <variable name="X(6,5,193)" index="143712" value="1"/>
  <variable name="X(6,24,621)" index="145388" value="1"/>
  <variable name="X(6,46,1032)" index="147047" value="1"/>
  <variable name="X(7,5,235)" index="147498" value="1"/>
  <variable name="X(7,8,193)" index="148704" value="1"/>
  <variable name="X(7,47,754)" index="150513" value="1"/>
  <variable name="X(8,7,754)" index="151761" value="1"/>
  <variable name="X(8,9,243)" index="152498" value="1"/>
  <variable name="X(8,26,1048)" index="154551" value="1"/>
  <variable name="X(8,35,604)" index="155355" value="1"/>
  <variable name="X(8,48,193)" index="156192" value="1"/>
  <variable name="X(9,5,724)" index="157971" value="1"/>
  <variable name="X(9,8,604)" index="159099" value="1"/>
  <variable name="X(9,10,281)" index="160024" value="1"/>
  <variable name="X(9,26,947)" index="161938" value="1"/>
  <variable name="X(9,49,243)" index="162482" value="1"/>
  <variable name="X(10,9,604)" index="164091" value="1"/>
  <variable name="X(10,16,325)" index="165060" value="1"/>
  <variable name="X(10,19,702)" index="166685" value="1"/>
  <variable name="X(10,26,668)" index="167899" value="1"/>
  <variable name="X(10,30,773)" index="169252" value="1"/>
  <variable name="X(10,50,281)" index="170008" value="1"/>
  <variable name="X(11,4,360)" index="171335" value="1"/>
  <variable name="X(11,51,932)" index="173155" value="1"/>
  <variable name="X(12,14,375)" index="173846" value="1"/>
  <variable name="X(12,52,467)" index="175186" value="1"/>
  <variable name="X(13,14,391)" index="176358" value="1"/>
  <variable name="X(13,15,797)" index="178012" value="1"/>
  <variable name="X(13,16,458)" index="178921" value="1"/>
  <variable name="X(13,21,325)" index="180036" value="1"/>
  <variable name="X(13,23,405)" index="181364" value="1"/>
  <variable name="X(13,53,373)" index="182580" value="1"/>
  <variable name="X(14,12,467)" index="183922" value="1"/>
  <variable name="X(14,13,373)" index="185076" value="1"/>
  <variable name="X(14,15,431)" index="186382" value="1"/>
  <variable name="X(14,23,375)" index="187574" value="1"/>
  <variable name="X(14,54,391)" index="188838" value="1"/>
  <variable name="X(15,13,458)" index="190153" value="1"/>
  <variable name="X(15,14,467)" index="191410" value="1"/>
  <variable name="X(15,55,431)" index="192622" value="1"/>
  <variable name="X(16,10,668)" index="194107" value="1"/>
  <variable name="X(16,13,325)" index="195012" value="1"/>
  <variable name="X(16,30,458)" index="196393" value="1"/>
  <variable name="X(16,56,1009)" index="198192" value="1"/>
  <variable name="X(17,5,536)" index="198967" value="1"/>
  <variable name="X(17,35,553)" index="200232" value="1"/>
  <variable name="X(17,57,1077)" index="202004" value="1"/>
  <variable name="X(18,5,577)" index="202752" value="1"/>
  <variable name="X(18,31,584)" index="204007" value="1"/>
  <variable name="X(18,58,1232)" index="205903" value="1"/>
  <variable name="X(19,10,604)" index="206523" value="1"/>
  <variable name="X(19,59,702)" index="207869" value="1"/>
  <variable name="X(20,4,621)" index="209036" value="1"/>
  <variable name="X(20,60,836)" index="210499" value="1"/>
  <variable name="X(21,61,325)" index="211236" value="1"/>
  <variable name="X(22,28,645)" index="212804" value="1"/>
  <variable name="X(22,62,94)" index="213501" value="1"/>
  <variable name="X(23,13,797)" index="215452" value="1"/>
  <variable name="X(23,14,865)" index="216768" value="1"/>
  <variable name="X(23,24,836)" index="217987" value="1"/>
  <variable name="X(23,27,773)" index="219172" value="1"/>
  <variable name="X(23,28,405)" index="220052" value="1"/>
  <variable name="X(23,63,375)" index="221270" value="1"/>
  <variable name="X(24,6,836)" index="222979" value="1"/>
  <variable name="X(24,23,773)" index="224164" value="1"/>
  <variable name="X(24,30,702)" index="225341" value="1"/>
  <variable name="X(24,64,621)" index="226508" value="1"/>
  <variable name="X(25,26,724)" index="227859" value="1"/>
  <variable name="X(25,35,722)" index="229105" value="1"/>
  <variable name="X(25,65,946)" index="230577" value="1"/>
  <variable name="X(26,8,754)" index="231633" value="1"/>
  <variable name="X(26,9,724)" index="232851" value="1"/>
  <variable name="X(26,10,773)" index="234148" value="1"/>
  <variable name="X(26,25,668)" index="235291" value="1"/>
  <variable name="X(26,66,1048)" index="236919" value="1"/>
  <variable name="X(27,23,797)" index="237916" value="1"/>
  <variable name="X(27,67,773)" index="239140" value="1"/>
  <variable name="X(28,22,94)" index="239709" value="1"/>
  <variable name="X(28,23,865)" index="241728" value="1"/>
  <variable name="X(28,29,645)" index="242756" value="1"/>
  <variable name="X(28,68,405)" index="243764" value="1"/>
  <variable name="X(29,28,865)" index="245472" value="1"/>
  <variable name="X(29,30,645)" index="246500" value="1"/>
  <variable name="X(29,69,360)" index="247463" value="1"/>
  <variable name="X(30,5,458)" index="248809" value="1"/>
  <variable name="X(30,10,702)" index="250301" value="1"/>
  <variable name="X(30,16,1009)" index="251856" value="1"/>
  <variable name="X(30,24,773)" index="252868" value="1"/>
  <variable name="X(30,29,360)" index="253703" value="1"/>
  <variable name="X(30,70,645)" index="255236" value="1"/>
  <variable name="X(31,1,947)" index="256786" value="1"/>
  <variable name="X(31,4,932)" index="258019" value="1"/>
  <variable name="X(31,18,1232)" index="259567" value="1"/>
  <variable name="X(31,40,584)" index="260167" value="1"/>
  <variable name="X(31,71,141)" index="260972" value="1"/>
  <variable name="X(32,3,992)" index="263071" value="1"/>
  <variable name="X(32,5,977)" index="264304" value="1"/>
  <variable name="X(32,72,1053)" index="265628" value="1"/>
  <variable name="X(33,3,1011)" index="266834" value="1"/>
  <variable name="X(33,35,1021)" index="268092" value="1"/>
  <variable name="X(33,73,553)" index="268872" value="1"/>
  <variable name="X(34,2,1029)" index="270596" value="1"/>
  <variable name="X(34,35,1048)" index="271863" value="1"/>
  <variable name="X(34,74,1021)" index="273084" value="1"/>
  <variable name="X(35,1,722)" index="274033" value="1"/>
  <variable name="X(35,8,1048)" index="275607" value="1"/>
  <variable name="X(35,17,1077)" index="276884" value="1"/>
  <variable name="X(35,25,946)" index="278001" value="1"/>
  <variable name="X(35,33,553)" index="278856" value="1"/>
  <variable name="X(35,34,1021)" index="280572" value="1"/>
  <variable name="X(35,75,604)" index="281403" value="1"/>
  <variable name="X(36,3,1130)" index="283177" value="1"/>
  <variable name="X(36,37,1133)" index="284428" value="1"/>
  <variable name="X(36,76,1191)" index="285734" value="1"/>
  <variable name="X(37,3,1193)" index="286984" value="1"/>
  <variable name="X(37,36,1191)" index="288230" value="1"/>
  <variable name="X(37,38,719)" index="289006" value="1"/>
  <variable name="X(37,77,1133)" index="290668" value="1"/>
  <variable name="X(38,37,1193)" index="291976" value="1"/>
  <variable name="X(38,78,719)" index="292750" value="1"/>
  <variable name="X(39,3,1245)" index="294524" value="1"/>
  <variable name="X(39,40,1220)" index="295747" value="1"/>
  <variable name="X(39,79,1193)" index="296968" value="1"/>
  <variable name="X(40,31,1232)" index="298255" value="1"/>
  <variable name="X(40,39,1245)" index="299516" value="1"/>
  <variable name="X(40,80,1220)" index="300739" value="1"/>
 </variables>
</CPLEXSolution>
